data;
set K:= K1 K2 K3 K4 K5 K6 K7 ;

set F:= F1 F2 ;

set Q:= Q1 Q2 ;

param T:= 45;
param V: 
	K1  K2  K3  K4  K5  K6  K7  :=
Q1	1   1   1   1   0   0   0   
Q2	0   0   0   0   1   1   1   
; # if resorce k is of type q

param TF:= 
K1 6
K2 6
K3 6
K4 6
K5 12
K6 12
K7 12
; # number of continuous time slots resource can fly

param TR:= 
K1 2
K2 2
K3 2
K4 2
K5 4
K6 4
K7 4
; #  number of continuous time slots resource k needs to rest between flights

param P:= 
K1 36
K2 36
K3 36
K4 36
K5 36
K6 36
K7 36
; #  number of continuous time slots a pilot can be present including rest times for resource k 

param N:= 
K1 4
K2 4
K3 4
K4 4
K5 2
K6 2
K7 2
; # max number of flights resource k can fly in the total time period

param A: 
	K1  K2  K3  K4  K5  K6  K7  :=
1	1   1   1   1   1   1   1   
2	1   1   1   1   1   1   1   
3	1   1   1   1   1   1   1   
4	1   1   1   1   1   1   1   
5	1   1   1   1   1   1   1   
6	1   1   1   1   1   1   1   
7	1   1   1   1   1   1   1   
8	1   1   1   1   1   1   1   
9	1   1   1   1   1   1   1   
10	1   1   1   1   1   1   1   
11	1   1   1   1   1   1   1   
12	1   1   1   1   1   1   1   
13	1   1   1   1   1   1   1   
14	1   1   1   1   1   1   1   
15	1   1   1   1   1   1   1   
16	1   1   1   1   1   1   1   
17	1   1   1   1   1   1   1   
18	1   1   1   1   1   1   1   
19	1   1   1   1   1   1   1   
20	1   1   1   1   1   1   1   
21	1   1   1   1   1   1   1   
22	1   1   1   1   1   1   1   
23	1   1   1   1   1   1   1   
24	1   1   1   1   1   1   1   
25	1   1   1   1   1   1   1   
26	1   1   1   1   1   1   1   
27	1   1   1   1   1   1   1   
28	1   1   1   1   1   1   1   
29	1   1   1   1   1   1   1   
30	1   1   1   1   1   1   1   
31	1   1   1   1   1   1   1   
32	1   1   1   1   1   1   1   
33	1   1   1   1   1   1   1   
34	1   1   1   1   1   1   1   
35	1   1   1   1   1   1   1   
36	1   1   1   1   1   1   1   
37	1   1   1   1   1   1   1   
38	1   1   1   1   1   1   1   
39	1   1   1   1   1   1   1   
40	1   1   1   1   1   1   1   
41	1   1   1   1   1   1   1   
42	1   1   1   1   1   1   1   
43	1   1   1   1   1   1   1   
44	1   1   1   1   1   1   1   
45	1   1   1   1   1   1   1   
; # availability of resorce k in time slot t

param B: 
	F1  F2  :=
Q1	0   0   
Q2	0   0   
; # if front f requires resources of type q

param U: 
	F1  F2  :=
K1	0   0   
K2	0   0   
K3	0   0   
K4	0   0   
K5	1   1   
K6	1   1   
K7	0   0   
; # transit time of resource

param C:= 
K1 900
K2 900
K3 1500
K4 4500
K5 5500
K6 5500
K7 5500
; #  water capacity of resource k

param S:= 
F1 7
F2 9
; # max number of resources that can fly at front f in the same time slot

param D:= 

[*,*,F1 ]:  K1    K2    K3    K4    K5    K6    K7    :=
1           1.55  1.55  1.55  1.24  0.93  0.93  0.93  
2           1.55  1.55  1.55  1.24  0.93  0.93  0.93  
3           1.55  1.55  1.55  1.24  0.93  0.93  0.93  
4           1.55  1.55  1.55  1.24  0.93  0.93  0.93  
5           1.55  1.55  1.55  1.24  0.93  0.93  0.93  
6           1.55  1.55  1.55  1.24  0.93  0.93  0.93  
7           1.55  1.55  1.55  1.24  0.93  0.93  0.93  
8           1.55  1.55  1.55  1.24  0.93  0.93  0.93  
9           1.55  1.55  1.55  1.24  0.93  0.93  0.93  
10          1.55  1.55  1.55  1.24  0.93  0.93  0.93  
11          1.55  1.55  1.55  1.24  0.93  0.93  0.93  
12          1.55  1.55  1.55  1.24  0.93  0.93  0.93  
13          1.55  1.55  1.55  1.24  0.93  0.93  0.93  
14          1.55  1.55  1.55  1.24  0.93  0.93  0.93  
15          1.55  1.55  1.55  1.24  0.93  0.93  0.93  
16          1.55  1.55  1.55  1.24  0.93  0.93  0.93  
17          1.55  1.55  1.55  1.24  0.93  0.93  0.93  
18          1.55  1.55  1.55  1.24  0.93  0.93  0.93  
19          1.55  1.55  1.55  1.24  0.93  0.93  0.93  
20          1.55  1.55  1.55  1.24  0.93  0.93  0.93  
21          1.55  1.55  1.55  1.24  0.93  0.93  0.93  
22          1.55  1.55  1.55  1.24  0.93  0.93  0.93  
23          1.55  1.55  1.55  1.24  0.93  0.93  0.93  
24          1.55  1.55  1.55  1.24  0.93  0.93  0.93  
25          1.48  1.48  1.48  1.18  0.88  0.88  0.88  
26          1.48  1.48  1.48  1.18  0.88  0.88  0.88  
27          1.48  1.48  1.48  1.18  0.88  0.88  0.88  
28          1.48  1.48  1.48  1.18  0.88  0.88  0.88  
29          1.48  1.48  1.48  1.18  0.88  0.88  0.88  
30          1.48  1.48  1.48  1.18  0.88  0.88  0.88  
31          1.48  1.48  1.48  1.18  0.88  0.88  0.88  
32          1.48  1.48  1.48  1.18  0.88  0.88  0.88  
33          1.48  1.48  1.48  1.18  0.88  0.88  0.88  
34          1.55  1.55  1.55  1.24  0.93  0.93  0.93  
35          1.55  1.55  1.55  1.24  0.93  0.93  0.93  
36          1.55  1.55  1.55  1.24  0.93  0.93  0.93  
37          1.55  1.55  1.55  1.24  0.93  0.93  0.93  
38          1.55  1.55  1.55  1.24  0.93  0.93  0.93  
39          1.55  1.55  1.55  1.24  0.93  0.93  0.93  
40          1.55  1.55  1.55  1.24  0.93  0.93  0.93  
41          1.55  1.55  1.55  1.24  0.93  0.93  0.93  
42          1.55  1.55  1.55  1.24  0.93  0.93  0.93  
43          1.55  1.55  1.55  1.24  0.93  0.93  0.93  
44          1.55  1.55  1.55  1.24  0.93  0.93  0.93  
45          1.55  1.55  1.55  1.24  0.93  0.93  0.93  

[*,*,F2 ]:  K1    K2    K3    K4    K5    K6    K7    :=
1           1.50  1.50  1.50  1.20  0.90  0.90  0.90  
2           1.50  1.50  1.50  1.20  0.90  0.90  0.90  
3           1.50  1.50  1.50  1.20  0.90  0.90  0.90  
4           1.50  1.50  1.50  1.20  0.90  0.90  0.90  
5           1.50  1.50  1.50  1.20  0.90  0.90  0.90  
6           1.50  1.50  1.50  1.20  0.90  0.90  0.90  
7           1.50  1.50  1.50  1.20  0.90  0.90  0.90  
8           1.50  1.50  1.50  1.20  0.90  0.90  0.90  
9           1.50  1.50  1.50  1.20  0.90  0.90  0.90  
10          1.50  1.50  1.50  1.20  0.90  0.90  0.90  
11          1.50  1.50  1.50  1.20  0.90  0.90  0.90  
12          1.50  1.50  1.50  1.20  0.90  0.90  0.90  
13          1.50  1.50  1.50  1.20  0.90  0.90  0.90  
14          1.50  1.50  1.50  1.20  0.90  0.90  0.90  
15          1.50  1.50  1.50  1.20  0.90  0.90  0.90  
16          1.50  1.50  1.50  1.20  0.90  0.90  0.90  
17          1.50  1.50  1.50  1.20  0.90  0.90  0.90  
18          1.50  1.50  1.50  1.20  0.90  0.90  0.90  
19          1.50  1.50  1.50  1.20  0.90  0.90  0.90  
20          1.50  1.50  1.50  1.20  0.90  0.90  0.90  
21          1.50  1.50  1.50  1.20  0.90  0.90  0.90  
22          1.50  1.50  1.50  1.20  0.90  0.90  0.90  
23          1.50  1.50  1.50  1.20  0.90  0.90  0.90  
24          1.50  1.50  1.50  1.20  0.90  0.90  0.90  
25          1.43  1.43  1.43  1.14  0.85  0.85  0.85  
26          1.43  1.43  1.43  1.14  0.85  0.85  0.85  
27          1.43  1.43  1.43  1.14  0.85  0.85  0.85  
28          1.43  1.43  1.43  1.14  0.85  0.85  0.85  
29          1.43  1.43  1.43  1.14  0.85  0.85  0.85  
30          1.43  1.43  1.43  1.14  0.85  0.85  0.85  
31          1.43  1.43  1.43  1.14  0.85  0.85  0.85  
32          1.43  1.43  1.43  1.14  0.85  0.85  0.85  
33          1.43  1.43  1.43  1.14  0.85  0.85  0.85  
34          1.50  1.50  1.50  1.20  0.90  0.90  0.90  
35          1.50  1.50  1.50  1.20  0.90  0.90  0.90  
36          1.50  1.50  1.50  1.20  0.90  0.90  0.90  
37          1.50  1.50  1.50  1.20  0.90  0.90  0.90  
38          1.50  1.50  1.50  1.20  0.90  0.90  0.90  
39          1.50  1.50  1.50  1.20  0.90  0.90  0.90  
40          1.50  1.50  1.50  1.20  0.90  0.90  0.90  
41          1.50  1.50  1.50  1.20  0.90  0.90  0.90  
42          1.50  1.50  1.50  1.20  0.90  0.90  0.90  
43          1.50  1.50  1.50  1.20  0.90  0.90  0.90  
44          1.50  1.50  1.50  1.20  0.90  0.90  0.90  
45          1.50  1.50  1.50  1.20  0.90  0.90  0.90  
; # downloads resource k can do at front f in time t if intermediate time slot

param E:= 

[*,*,F1 ]:  K1    K2    K3    K4    K5    K6    K7    :=
1           0.48  0.39  0.68  0.06  0.18  0.25  0.09  
2           0.48  0.39  0.68  0.06  0.18  0.25  0.09  
3           0.48  0.39  0.68  0.06  0.18  0.25  0.09  
4           0.48  0.39  0.68  0.06  0.18  0.25  0.09  
5           0.48  0.39  0.68  0.06  0.18  0.25  0.09  
6           0.48  0.39  0.68  0.06  0.18  0.25  0.09  
7           0.48  0.39  0.68  0.06  0.18  0.25  0.09  
8           0.48  0.39  0.68  0.06  0.18  0.25  0.09  
9           0.48  0.39  0.68  0.06  0.18  0.25  0.09  
10          0.48  0.39  0.68  0.06  0.18  0.25  0.09  
11          0.48  0.39  0.68  0.06  0.18  0.25  0.09  
12          0.48  0.39  0.68  0.06  0.18  0.25  0.09  
13          0.48  0.39  0.68  0.06  0.18  0.25  0.09  
14          0.48  0.39  0.68  0.06  0.18  0.25  0.09  
15          0.48  0.39  0.68  0.06  0.18  0.25  0.09  
16          0.48  0.39  0.68  0.06  0.18  0.25  0.09  
17          0.48  0.39  0.68  0.06  0.18  0.25  0.09  
18          0.48  0.39  0.68  0.06  0.18  0.25  0.09  
19          0.48  0.39  0.68  0.06  0.18  0.25  0.09  
20          0.48  0.39  0.68  0.06  0.18  0.25  0.09  
21          0.48  0.39  0.68  0.06  0.18  0.25  0.09  
22          0.48  0.39  0.68  0.06  0.18  0.25  0.09  
23          0.48  0.39  0.68  0.06  0.18  0.25  0.09  
24          0.48  0.39  0.68  0.06  0.18  0.25  0.09  
25          0.46  0.37  0.65  0.06  0.17  0.24  0.09  
26          0.46  0.37  0.65  0.06  0.17  0.24  0.09  
27          0.46  0.37  0.65  0.06  0.17  0.24  0.09  
28          0.46  0.37  0.65  0.06  0.17  0.24  0.09  
29          0.46  0.37  0.65  0.06  0.17  0.24  0.09  
30          0.46  0.37  0.65  0.06  0.17  0.24  0.09  
31          0.46  0.37  0.65  0.06  0.17  0.24  0.09  
32          0.46  0.37  0.65  0.06  0.17  0.24  0.09  
33          0.46  0.37  0.65  0.06  0.17  0.24  0.09  
34          0.48  0.39  0.68  0.06  0.18  0.25  0.09  
35          0.48  0.39  0.68  0.06  0.18  0.25  0.09  
36          0.48  0.39  0.68  0.06  0.18  0.25  0.09  
37          0.48  0.39  0.68  0.06  0.18  0.25  0.09  
38          0.48  0.39  0.68  0.06  0.18  0.25  0.09  
39          0.48  0.39  0.68  0.06  0.18  0.25  0.09  
40          0.48  0.39  0.68  0.06  0.18  0.25  0.09  
41          0.48  0.39  0.68  0.06  0.18  0.25  0.09  
42          0.48  0.39  0.68  0.06  0.18  0.25  0.09  
43          0.48  0.39  0.68  0.06  0.18  0.25  0.09  
44          0.48  0.39  0.68  0.06  0.18  0.25  0.09  
45          0.48  0.39  0.68  0.06  0.18  0.25  0.09  

[*,*,F2 ]:  K1    K2    K3    K4    K5    K6    K7    :=
1           0.39  0.33  0.65  0.01  0.13  0.25  0.14  
2           0.39  0.33  0.65  0.01  0.13  0.25  0.14  
3           0.39  0.33  0.65  0.01  0.13  0.25  0.14  
4           0.39  0.33  0.65  0.01  0.13  0.25  0.14  
5           0.39  0.33  0.65  0.01  0.13  0.25  0.14  
6           0.39  0.33  0.65  0.01  0.13  0.25  0.14  
7           0.39  0.33  0.65  0.01  0.13  0.25  0.14  
8           0.39  0.33  0.65  0.01  0.13  0.25  0.14  
9           0.39  0.33  0.65  0.01  0.13  0.25  0.14  
10          0.39  0.33  0.65  0.01  0.13  0.25  0.14  
11          0.39  0.33  0.65  0.01  0.13  0.25  0.14  
12          0.39  0.33  0.65  0.01  0.13  0.25  0.14  
13          0.39  0.33  0.65  0.01  0.13  0.25  0.14  
14          0.39  0.33  0.65  0.01  0.13  0.25  0.14  
15          0.39  0.33  0.65  0.01  0.13  0.25  0.14  
16          0.39  0.33  0.65  0.01  0.13  0.25  0.14  
17          0.39  0.33  0.65  0.01  0.13  0.25  0.14  
18          0.39  0.33  0.65  0.01  0.13  0.25  0.14  
19          0.39  0.33  0.65  0.01  0.13  0.25  0.14  
20          0.39  0.33  0.65  0.01  0.13  0.25  0.14  
21          0.39  0.33  0.65  0.01  0.13  0.25  0.14  
22          0.39  0.33  0.65  0.01  0.13  0.25  0.14  
23          0.39  0.33  0.65  0.01  0.13  0.25  0.14  
24          0.39  0.33  0.65  0.01  0.13  0.25  0.14  
25          0.37  0.31  0.61  0.01  0.12  0.24  0.14  
26          0.37  0.31  0.61  0.01  0.12  0.24  0.14  
27          0.37  0.31  0.61  0.01  0.12  0.24  0.14  
28          0.37  0.31  0.61  0.01  0.12  0.24  0.14  
29          0.37  0.31  0.61  0.01  0.12  0.24  0.14  
30          0.37  0.31  0.61  0.01  0.12  0.24  0.14  
31          0.37  0.31  0.61  0.01  0.12  0.24  0.14  
32          0.37  0.31  0.61  0.01  0.12  0.24  0.14  
33          0.37  0.31  0.61  0.01  0.12  0.24  0.14  
34          0.39  0.33  0.65  0.01  0.13  0.25  0.14  
35          0.39  0.33  0.65  0.01  0.13  0.25  0.14  
36          0.39  0.33  0.65  0.01  0.13  0.25  0.14  
37          0.39  0.33  0.65  0.01  0.13  0.25  0.14  
38          0.39  0.33  0.65  0.01  0.13  0.25  0.14  
39          0.39  0.33  0.65  0.01  0.13  0.25  0.14  
40          0.39  0.33  0.65  0.01  0.13  0.25  0.14  
41          0.39  0.33  0.65  0.01  0.13  0.25  0.14  
42          0.39  0.33  0.65  0.01  0.13  0.25  0.14  
43          0.39  0.33  0.65  0.01  0.13  0.25  0.14  
44          0.39  0.33  0.65  0.01  0.13  0.25  0.14  
45          0.39  0.33  0.65  0.01  0.13  0.25  0.14  
; # downloads resource k can do at front f in time t if starting or ending flight

param W: 
	F1        F2        :=
1	768.61    413.87    
2	2920.72   1572.69   
3	2920.72   1572.69   
4	2920.72   1572.69   
5	2920.72   1572.69   
6	2920.72   1572.69   
7	2920.72   1572.69   
8	2920.72   1572.69   
9	2920.72   1572.69   
10	2920.72   1572.69   
11	2920.72   1572.69   
12	2920.72   1572.69   
13	2920.72   1572.69   
14	2920.72   1572.69   
15	2920.72   1572.69   
16	2920.72   1572.69   
17	2920.72   1572.69   
18	2920.72   1572.69   
19	3381.88   1821.01   
20	3381.88   1821.01   
21	3381.88   1821.01   
22	3381.88   1821.01   
23	3381.88   1821.01   
24	3381.88   1821.01   
25	3381.88   1821.01   
26	3381.88   1821.01   
27	3381.88   1821.01   
28	3381.88   1821.01   
29	3381.88   1821.01   
30	3381.88   1821.01   
31	3381.88   1821.01   
32	3381.88   1821.01   
33	3381.88   1821.01   
34	3381.88   1821.01   
35	2920.72   1572.69   
36	2920.72   1572.69   
37	2920.72   1572.69   
38	2920.72   1572.69   
39	2920.72   1572.69   
40	2920.72   1572.69   
41	2920.72   1572.69   
42	2920.72   1572.69   
43	2920.72   1572.69   
44	2920.72   1572.69   
45	768.61    413.87    
; # water needed at front f in time slot t

param M := 100000000; 

param a1:= 10000000;

param a2:= 100;

param a3:= 0.0001;
